949806
13,165,8,3,185,60,138,15,120,110,97,214,11,143,197,46,125,76,57,95,167,84,114,198,119,86,29,174,154,200,10,201,14,164,65,152,191,122,73,42,113,160,98,126,209,70,218,136,181,206,193,195,173,188,79,85,123,148,131,124,61,182,25,132,2,115,149,93,213,212,104,203,38,103,187,12,21,4,217,129,146,228,88,109,90,171,186,150,170,142,153,33,224,6,9,101,184,161,179,196,107,91,96,156,211,68,166,116,205,75,78,215,192,37,34,89,55,130,27,169,40,81,102,62,87,108,133,112,155,229,162,67,147,127,163,178,207,39,157,74,83,135,140,72,49,71,118,32,63,7,36,1,210,183,35,94,50,28,151,117,20,22,26,144,16,189,208,159,69,226,177,51,23,199,31,43,222,41,100,216,202,54,18,56,92,53,175,105,99,190,219,141,24,66,180,121,106,128,77,158,82,172,204,168,221,59,52,80,230,45,58,139,19,227,194,220,44,5,137,30,134,17,47,111,48,225,176,223,145,64,13